63
19
0 20 21 24 29 30 32 33 34 39 40 44 45 46 49 50 52 53 57 58 60
1 20 23 24 25 26 27 28 30 33 34 39 40 44 51 52 53 54 55 56 58 60 61 62
2 20 21 23 24 25 26 30 33 36 39 40 43 44 45 49 51 52 53 55 57 60 61
3 20 21 23 24 25 26 29 30 31 34 36 39 40 43 44 46 50 51 52 53 55 60 62
4 20 23 24 25 26 32 33 34 35 37 38 40 42 43 44 45 47 50 53 55 56 57 61 62
5 21 23 25 26 27 32 33 35 37 39 42 45 46 49 52 53 54 57 59 60
6 19 20 21 29 32 34 37 39 40 42 43 44 45 46 52 53 54 59 60
7 20 26 29 33 35 40 42 43 44 45 46 49 50 53 56 59 61 62
8 21 24 29 30 32 33 34 38 39 42 43 45 50 56 60 61
9 19 25 27 29 32 37 40 42 43 44 45 46 50 51 55 56 58 60 61 62
10 21 24 25 26 27 31 32 33 36 38 39 45 46 48 51 52 53 56 57 59
11 19 21 22 23 24 27 28 38 39 43 48 51 52 54 55 59
12 21 22 23 25 29 32 33 36 38 44 62
13 19 26 32 33 35 37 39 47 48 50 51 52 57 58
14 26 27 30 32 36 43 46 47 49 53 55 61 62
15 29 31 36 37 40 41 45 48 57 59
16 20 24 26 30 37 47 57 61
17 36 43 50 53 62
18 31 46
